p cnf 231 367
a 5 6 7 8 9 10 11 12 13 14 15 16 17 18 19 20 21 22 23 24 25 26 27 28 29 30 31 32 33 34 35 36 37 38 39 40 0
e 1 2 3 4 41 42 43 44 45 46 47 48 49 50 51 52 53 54 55 56 57 58 59 60 61 62 63 64 65 66 67 68 69 70 71 72 73 74 75 76 77 78 79 80 81 82 83 84 85 86 87 88 89 90 91 92 93 94 95 96 97 98 99 100 101 102 103 104 105 106 107 108 109 110 111 112 113 114 115 116 117 118 119 120 121 122 123 124 125 126 127 128 129 130 131 132 133 134 135 136 137 138 139 140 141 142 143 144 145 146 147 148 149 150 151 152 153 154 155 156 157 158 159 160 161 162 163 164 165 166 167 168 169 170 171 172 173 174 175 176 177 178 179 180 181 182 183 184 185 186 187 188 189 190 191 192 193 194 195 196 197 198 199 200 201 202 203 204 205 206 207 208 209 210 211 212 213 214 215 216 217 218 219 220 221 222 223 224 225 226 227 228 229 230 231 0
-231 0
231 -136 0
231 -230 0
4 3 2 1 -229 -218 -207 -196 -181 230 0
229 -228 0
229 -192 0
229 -193 0
229 -194 0
229 -195 0
-227 -224 -221 228 0
227 -225 0
227 -226 0
227 -40 0
227 -37 0
-4 -28 226 0
-25 4 225 0
224 -222 0
224 -223 0
224 -39 0
224 -36 0
-4 -26 223 0
-24 4 222 0
221 -219 0
221 -220 0
221 -38 0
221 -35 0
-4 -27 220 0
-23 4 219 0
218 -217 0
218 -192 0
218 -193 0
218 -194 0
218 -195 0
-216 -213 -210 217 0
216 -214 0
216 -215 0
216 -37 0
216 -34 0
-3 -28 215 0
-25 3 214 0
213 -211 0
213 -212 0
213 -36 0
213 -32 0
-3 -26 212 0
-24 3 211 0
210 -208 0
210 -209 0
210 -35 0
210 -30 0
-3 -27 209 0
-23 3 208 0
207 -206 0
207 -192 0
207 -193 0
207 -194 0
207 -195 0
-205 -202 -199 206 0
205 -203 0
205 -204 0
205 -37 0
205 -34 0
-2 -28 204 0
-25 2 203 0
202 -200 0
202 -201 0
202 -36 0
202 -32 0
-2 -26 201 0
-24 2 200 0
199 -197 0
199 -198 0
199 -35 0
199 -30 0
-2 -27 198 0
-23 2 197 0
196 -191 0
196 -192 0
196 -193 0
196 -194 0
196 -195 0
-26 28 195 0
-27 26 194 0
-25 24 193 0
-24 23 192 0
-190 -187 -184 191 0
190 -188 0
190 -189 0
190 -34 0
190 -33 0
-1 -28 189 0
-25 1 188 0
187 -185 0
187 -186 0
187 -32 0
187 -31 0
-1 -26 186 0
-24 1 185 0
184 -182 0
184 -183 0
184 -30 0
184 -29 0
-1 -27 183 0
-23 1 182 0
181 -146 0
181 -156 0
181 -166 0
181 -176 0
181 -177 0
181 -178 0
181 -179 0
181 -180 0
-6 5 180 0
-9 8 179 0
-7 6 178 0
-8 10 177 0
-175 -172 -169 176 0
175 -173 0
175 -174 0
175 -16 0
175 -15 0
-1 -10 174 0
-7 1 173 0
172 -170 0
172 -171 0
172 -14 0
172 -13 0
-1 -8 171 0
-6 1 170 0
169 -167 0
169 -168 0
169 -12 0
169 -11 0
-1 -9 168 0
-5 1 167 0
-165 -162 -159 166 0
165 -163 0
165 -164 0
165 -22 0
165 -19 0
-4 -10 164 0
-7 4 163 0
162 -160 0
162 -161 0
162 -21 0
162 -18 0
-4 -8 161 0
-6 4 160 0
159 -157 0
159 -158 0
159 -20 0
159 -17 0
-5 4 158 0
-4 -9 157 0
-155 -152 -149 156 0
155 -153 0
155 -154 0
155 -19 0
155 -16 0
-2 -10 154 0
-7 2 153 0
152 -150 0
152 -151 0
152 -18 0
152 -14 0
-2 -8 151 0
-6 2 150 0
149 -147 0
149 -148 0
149 -17 0
149 -12 0
-2 -9 148 0
-5 2 147 0
-145 -142 -139 146 0
145 -143 0
145 -144 0
145 -19 0
145 -16 0
-3 -10 144 0
-7 3 143 0
142 -140 0
142 -141 0
142 -18 0
142 -14 0
-3 -8 141 0
-6 3 140 0
139 -137 0
139 -138 0
139 -17 0
139 -12 0
-3 -9 138 0
-5 3 137 0
-135 -134 136 0
135 -4 0
135 -3 0
135 -2 0
135 -1 0
134 -85 0
134 -100 0
134 -111 0
134 -122 0
134 -133 0
-99 -98 -97 -96 -132 133 0
132 -125 0
132 -128 0
132 -131 0
37 40 -130 -129 131 0
130 28 0
130 4 0
129 25 0
129 -4 0
39 36 -127 -126 128 0
127 26 0
127 4 0
126 24 0
126 -4 0
38 35 -124 -123 125 0
124 27 0
124 4 0
123 23 0
123 -4 0
-99 -98 -97 -96 -121 122 0
121 -114 0
121 -117 0
121 -120 0
37 34 -119 -118 120 0
119 28 0
119 3 0
118 25 0
118 -3 0
32 36 -116 -115 117 0
116 26 0
116 3 0
115 24 0
115 -3 0
30 35 -113 -112 114 0
113 27 0
113 3 0
112 23 0
112 -3 0
-99 -98 -97 -96 -110 111 0
110 -103 0
110 -106 0
110 -109 0
37 34 -108 -107 109 0
108 28 0
108 2 0
107 25 0
107 -2 0
32 36 -105 -104 106 0
105 26 0
105 2 0
104 24 0
104 -2 0
30 35 -102 -101 103 0
102 27 0
102 2 0
101 23 0
101 -2 0
-99 -98 -97 -96 -95 100 0
99 26 0
99 -28 0
98 27 0
98 -26 0
97 25 0
97 -24 0
96 24 0
96 -23 0
95 -88 0
95 -91 0
95 -94 0
33 34 -93 -92 94 0
93 28 0
93 1 0
92 25 0
92 -1 0
32 31 -90 -89 91 0
90 26 0
90 1 0
89 24 0
89 -1 0
30 29 -87 -86 88 0
87 27 0
87 1 0
86 23 0
86 -1 0
-84 -83 -82 -81 -80 -70 -60 -50 85 0
84 6 0
84 -5 0
83 9 0
83 -8 0
82 7 0
82 -6 0
81 8 0
81 -10 0
80 -73 0
80 -76 0
80 -79 0
16 15 -78 -77 79 0
78 1 0
78 10 0
77 7 0
77 -1 0
13 14 -75 -74 76 0
75 1 0
75 8 0
74 6 0
74 -1 0
12 11 -72 -71 73 0
72 1 0
72 9 0
71 5 0
71 -1 0
70 -63 0
70 -66 0
70 -69 0
22 19 -68 -67 69 0
68 10 0
68 4 0
67 7 0
67 -4 0
21 18 -65 -64 66 0
65 8 0
65 4 0
64 6 0
64 -4 0
20 17 -62 -61 63 0
62 5 0
62 -4 0
61 4 0
61 9 0
60 -53 0
60 -56 0
60 -59 0
19 16 -58 -57 59 0
58 2 0
58 10 0
57 7 0
57 -2 0
18 14 -55 -54 56 0
55 2 0
55 8 0
54 6 0
54 -2 0
17 12 -52 -51 53 0
52 2 0
52 9 0
51 5 0
51 -2 0
50 -43 0
50 -46 0
50 -49 0
19 16 -48 -47 49 0
48 3 0
48 10 0
47 7 0
47 -3 0
18 14 -45 -44 46 0
45 3 0
45 8 0
44 6 0
44 -3 0
17 12 -42 -41 43 0
42 3 0
42 9 0
41 5 0
41 -3 0
